(assert (forall ((pkt_0_4_6_0  Int  )(state_group_0_state_0_5_7_0  Int  )(state_group_0_state_1_6_8_0  Int  )) (let ((_n0 state_group_0_state_1_6_8_0 ))
(let ((_n1 state_group_0_state_0_5_7_0 ))
(let ((_n2 true ))
(let ((_n3 (+   _n1   (ite  _n2  1 0) ) ))
(let ((_n4 (ite (=  _n0  0)  _n3   _n1  ) ))
(let ((_n5 (<   _n0   (ite  _n2  1 0) ) ))
(let ((_n6 1000 ))
(let ((_n7 false ))
(let ((_n8 pkt_0_4_6_0 ))
(let ((_n9 (ite  _n5   _n8   (ite  _n7  1 0)  ) ))
(let ((_n10 (ite  _n5   _n1   (ite  _n7  1 0)  ) ))
(let ((_n11 (+   _n10   _n9 ) ))
(let ((_n12 (=   _n11   _n6 ) ))
(let ((_n13 (not  _n12 ) ))
(let ((_n14 (and   _n5   _n13 ) ))
(let ((_n15 (not  _n5 ) ))
(let ((_n16 (or   _n14   _n15 ) ))
(let ((_n17 (ite  _n16   (ite  _n7  1 0)   _n8  ) ))
(let ((_n18 (+   _n1   _n17 ) ))
(let ((_n19 (and   _n14   _n5 ) ))
(let ((_n20 (+   _n1   (ite  _n19  1 0) ) ))
(let ((_n21 (ite (=  (ite  _n14  1 0)  1)  _n20   _n18  ) ))
(let ((_n22 (ite (=  (ite  _n5  1 0)  1)  _n21   _n1  ) ))
(let ((_n23 (=   _n22   _n4 ) ))
(let ((_n25 (ite (=  _n1  999)  (ite  _n2  1 0)   _n0  ) ))
(let ((_n26 (ite (=  _n0  0)  _n25   _n0  ) ))
(let ((_n27 (+   _n0   _n17 ) ))
(let ((_n28 (ite (=  (ite  _n14  1 0)  1)  _n0   _n27  ) ))
(let ((_n29 (ite (=  (ite  _n5  1 0)  1)  _n28   _n0  ) ))
(let ((_n30 (=   _n29   _n26 ) ))
(implies  (and (and (>= state_group_0_state_1_6_8_0 0) (< state_group_0_state_1_6_8_0 1024 ))  (and (and (>= state_group_0_state_0_5_7_0 0) (< state_group_0_state_0_5_7_0 1024 ))  (and (>= pkt_0_4_6_0 0) (< pkt_0_4_6_0 1024 )) ) )   (and  _n23  _n30 )  )))))))))))))))))))))))))))))))))
(check-sat)
(get-model)
(exit)